c minVC: 55
p edge 94 124
e 3 8
e 1 12
e 15 18
e 5 20
e 10 22
e 17 22
e 4 24
e 9 25
e 17 29
e 22 29
e 2 34
e 18 35
e 31 35
e 26 38
e 28 38
e 17 39
e 22 39
e 29 39
e 36 40
e 37 40
e 16 41
e 27 41
e 17 42
e 22 42
e 29 42
e 39 42
e 8 43
e 23 43
e 10 44
e 7 45
e 21 45
e 41 46
e 19 48
e 32 50
e 9 51
e 15 51
e 25 51
e 44 52
e 47 52
e 15 53
e 51 53
e 10 54
e 44 54
e 52 54
e 23 55
e 43 55
e 30 57
e 10 58
e 44 58
e 54 58
e 44 59
e 49 59
e 54 59
e 58 59
e 6 60
e 5 61
e 20 61
e 13 62
e 46 63
e 8 64
e 23 64
e 43 64
e 55 64
e 33 65
e 41 66
e 52 68
e 56 68
e 30 69
e 34 69
e 57 69
e 7 70
e 27 71
e 28 71
e 13 72
e 67 74
e 14 75
e 33 76
e 65 76
e 47 77
e 19 78
e 26 78
e 38 78
e 47 79
e 77 79
e 4 80
e 13 80
e 62 80
e 19 81
e 48 81
e 67 81
e 74 81
e 37 82
e 40 82
e 14 83
e 47 83
e 52 83
e 68 83
e 77 83
e 79 83
e 66 84
e 5 85
e 20 85
e 46 86
e 66 86
e 84 86
e 19 87
e 48 87
e 81 87
e 73 88
e 7 90
e 70 90
e 32 91
e 50 91
e 89 91
e 11 92
e 56 92
e 14 93
e 68 93
e 75 93
e 83 93
e 20 94
e 36 94
e 40 94
e 85 94
